(set-info :source |printed by MathSAT|)
(declare-fun |.x{101}| () Int)
(declare-fun |.y{9}| () Int)
(declare-fun |.x{108}| () Int)
(declare-fun |.y{10}| () Int)
(declare-fun |.x{109}| () (Array Int Int))
(declare-fun |.y{11}| () (Array Int Int))
(declare-fun |.x{104}| () Int)
(declare-fun |.y{12}| () Int)
(declare-fun |.y{8}| () (Array Int Int))
(declare-fun |.y{13}| () (Array Int Int))
(declare-fun |.x{94}| () Int)
(declare-fun |.y{14}| () Int)
(declare-fun |.x{102}| () (Array Int Int))
(declare-fun |.y{15}| () (Array Int Int))
(declare-fun |.loc{3}| () Bool)
(declare-fun |.loc{5}| () Bool)
(declare-fun |.loc{4}| () Bool)
(declare-fun |.loc{6}| () Bool)
(declare-fun |.x{105}| () Int)
(declare-fun |.x{106}| () Int)
(declare-fun |.x{103}| () Int)
(declare-fun |.x{107}| () Int)
(declare-fun |.x{110}| () Int)
(define-fun .def_22 () Bool (! |.loc{3}| :next |.loc{5}|))
(define-fun .def_90 () Bool (not .def_22))
(define-fun .def_24 () Bool (! |.loc{4}| :next |.loc{6}|))
(define-fun .def_70 () Bool (not .def_24))
(define-fun .def_214 () Bool (! (and .def_70 .def_90) :init true))
(define-fun .def_20 () (Array Int Int) (! |.x{102}| :next |.y{15}|))
(define-fun .def_205 () Int (select .def_20 |.x{103}|))
(define-fun .def_12 () (Array Int Int) (! |.x{109}| :next |.y{11}|))
(define-fun .def_204 () Int (select .def_12 |.x{110}|))
(define-fun .def_206 () Bool (= .def_204 .def_205))
(define-fun .def_207 () Bool (not .def_206))
(define-fun .def_74 () Int (* (- 1) |.x{105}|))
(define-fun .def_14 () Int (! |.x{104}| :next |.y{12}|))
(define-fun .def_77 () Int (+ .def_14 .def_74))
(define-fun .def_201 () Bool (= .def_77 1))
(define-fun .def_57 () Int (* (- 1) |.x{103}|))
(define-fun .def_194 () Int (+ |.x{106}| .def_57))
(define-fun .def_8 () Int (! |.x{101}| :next |.y{9}|))
(define-fun .def_195 () Int (+ .def_8 .def_194))
(define-fun .def_196 () Bool (= .def_195 0))
(define-fun .def_191 () Bool (<= .def_14 |.x{106}|))
(define-fun .def_192 () Bool (not .def_191))
(define-fun .def_187 () Bool (<= |.x{106}| (- 1)))
(define-fun .def_188 () Bool (not .def_187))
(define-fun .def_183 () Bool (<= |.x{110}| 0))
(define-fun .def_184 () Bool (not .def_183))
(define-fun .def_10 () Int (! |.x{108}| :next |.y{10}|))
(define-fun .def_98 () Bool (<= .def_10 0))
(define-fun .def_185 () Bool (or .def_98 .def_184))
(define-fun .def_109 () Int (* (- 1) |.x{107}|))
(define-fun .def_146 () Int (* (- 1) |.x{106}|))
(define-fun .def_178 () Int (+ .def_146 .def_109))
(define-fun .def_179 () Int (+ |.x{105}| .def_178))
(define-fun .def_180 () Bool (= .def_179 0))
(define-fun .def_168 () Int (* (- 1) |.x{110}|))
(define-fun .def_171 () Int (+ |.x{107}| .def_168))
(define-fun .def_172 () Int (+ .def_10 .def_171))
(define-fun .def_173 () Bool (= .def_172 0))
(define-fun .def_18 () Int (! |.x{94}| :next |.y{14}|))
(define-fun .def_101 () Bool (<= .def_14 .def_18))
(define-fun .def_174 () Bool (and .def_101 .def_173))
(define-fun .def_175 () Bool (and |.loc{5}| .def_174))
(define-fun .def_181 () Bool (and .def_175 .def_180))
(define-fun .def_182 () Bool (and .def_180 .def_181))
(define-fun .def_186 () Bool (and .def_182 .def_185))
(define-fun .def_189 () Bool (and .def_186 .def_188))
(define-fun .def_120 () Bool (not .def_98))
(define-fun .def_190 () Bool (and .def_120 .def_189))
(define-fun .def_193 () Bool (and .def_190 .def_192))
(define-fun .def_197 () Bool (and .def_193 .def_196))
(define-fun .def_198 () Bool (and .def_24 .def_197))
(define-fun .def_67 () Bool (<= .def_8 0))
(define-fun .def_65 () Bool (<= |.x{103}| 0))
(define-fun .def_66 () Bool (not .def_65))
(define-fun .def_68 () Bool (or .def_66 .def_67))
(define-fun .def_199 () Bool (and .def_68 .def_198))
(define-fun .def_200 () Bool (and .def_90 .def_199))
(define-fun .def_202 () Bool (and .def_200 .def_201))
(define-fun .def_72 () Bool (not .def_67))
(define-fun .def_203 () Bool (and .def_72 .def_202))
(define-fun .def_208 () Bool (and .def_203 .def_207))
(define-fun .def_164 () Bool (= .def_12 |.y{15}|))
(define-fun .def_162 () Bool (= |.y{14}| 0))
(define-fun .def_157 () Bool (= |.y{12}| .def_18))
(define-fun .def_16 () (Array Int Int) (! |.y{8}| :next |.y{13}|))
(define-fun .def_155 () Bool (= |.y{11}| .def_16))
(define-fun .def_153 () Bool (= |.y{10}| .def_14))
(define-fun .def_32 () Bool (= .def_8 |.y{9}|))
(define-fun .def_154 () Bool (and .def_32 .def_153))
(define-fun .def_156 () Bool (and .def_154 .def_155))
(define-fun .def_158 () Bool (and .def_156 .def_157))
(define-fun .def_159 () Bool (and .def_22 .def_158))
(define-fun .def_141 () Bool (not |.loc{5}|))
(define-fun .def_160 () Bool (and .def_141 .def_159))
(define-fun .def_161 () Bool (and .def_70 .def_160))
(define-fun .def_163 () Bool (and .def_161 .def_162))
(define-fun .def_165 () Bool (and .def_163 .def_164))
(define-fun .def_52 () Bool (<= .def_18 .def_10))
(define-fun .def_166 () Bool (and .def_52 .def_165))
(define-fun .def_209 () Bool (or .def_166 .def_208))
(define-fun .def_149 () Int (+ |.x{105}| .def_146))
(define-fun .def_150 () Int (+ .def_10 .def_149))
(define-fun .def_151 () Bool (= .def_150 0))
(define-fun .def_136 () Int (+ |.x{105}| .def_57))
(define-fun .def_137 () Int (+ .def_18 .def_136))
(define-fun .def_138 () Bool (= .def_137 0))
(define-fun .def_134 () Bool (= .def_12 |.y{11}|))
(define-fun .def_132 () Bool (= .def_10 |.y{10}|))
(define-fun .def_129 () Int (+ .def_14 .def_57))
(define-fun .def_130 () Bool (= .def_129 1))
(define-fun .def_122 () Bool (<= |.x{107}| 0))
(define-fun .def_123 () Bool (not .def_122))
(define-fun .def_124 () Bool (or .def_67 .def_123))
(define-fun .def_116 () Int (select .def_12 |.x{106}|))
(define-fun .def_117 () (Array Int Int) (store .def_20 |.x{107}| .def_116))
(define-fun .def_118 () Bool (= |.y{15}| .def_117))
(define-fun .def_112 () Int (+ .def_18 .def_109))
(define-fun .def_113 () Int (+ .def_8 .def_112))
(define-fun .def_114 () Bool (= .def_113 0))
(define-fun .def_104 () Int (* (- 1) |.y{14}|))
(define-fun .def_105 () Int (+ .def_18 .def_104))
(define-fun .def_106 () Bool (= .def_105 (- 1)))
(define-fun .def_102 () Bool (not .def_101))
(define-fun .def_96 () Bool (<= |.x{106}| 0))
(define-fun .def_97 () Bool (not .def_96))
(define-fun .def_99 () Bool (or .def_97 .def_98))
(define-fun .def_100 () Bool (and .def_32 .def_99))
(define-fun .def_103 () Bool (and .def_100 .def_102))
(define-fun .def_107 () Bool (and .def_103 .def_106))
(define-fun .def_115 () Bool (and .def_107 .def_114))
(define-fun .def_119 () Bool (and .def_115 .def_118))
(define-fun .def_121 () Bool (and .def_119 .def_120))
(define-fun .def_125 () Bool (and .def_121 .def_124))
(define-fun .def_131 () Bool (and .def_125 .def_130))
(define-fun .def_133 () Bool (and .def_131 .def_132))
(define-fun .def_135 () Bool (and .def_133 .def_134))
(define-fun .def_139 () Bool (and .def_135 .def_138))
(define-fun .def_63 () Bool (= .def_14 |.y{12}|))
(define-fun .def_140 () Bool (and .def_63 .def_139))
(define-fun .def_142 () Bool (and .def_140 .def_141))
(define-fun .def_143 () Bool (and .def_24 .def_142))
(define-fun .def_144 () Bool (and .def_90 .def_143))
(define-fun .def_145 () Bool (and .def_72 .def_144))
(define-fun .def_152 () Bool (and .def_145 .def_151))
(define-fun .def_210 () Bool (or .def_152 .def_209))
(define-fun .def_211 () Bool (and |.loc{6}| .def_210))
(define-fun .def_92 () Bool (<= |.y{12}| 0))
(define-fun .def_93 () Bool (not .def_92))
(define-fun .def_87 () Bool (<= |.y{14}| 0))
(define-fun .def_88 () Bool (not .def_87))
(define-fun .def_84 () Bool (<= |.y{9}| 0))
(define-fun .def_85 () Bool (not .def_84))
(define-fun .def_55 () Bool (not |.loc{6}|))
(define-fun .def_82 () Bool (and |.loc{5}| .def_55))
(define-fun .def_81 () Bool (= |.y{10}| 0))
(define-fun .def_83 () Bool (and .def_81 .def_82))
(define-fun .def_86 () Bool (and .def_83 .def_85))
(define-fun .def_89 () Bool (and .def_86 .def_88))
(define-fun .def_91 () Bool (and .def_89 .def_90))
(define-fun .def_94 () Bool (and .def_91 .def_93))
(define-fun .def_95 () Bool (and .def_70 .def_94))
(define-fun .def_212 () Bool (or .def_95 .def_211))
(define-fun .def_78 () Int (+ .def_10 .def_77))
(define-fun .def_79 () Bool (= .def_78 0))
(define-fun .def_58 () Int (+ .def_10 .def_57))
(define-fun .def_59 () Int (+ .def_8 .def_58))
(define-fun .def_60 () Bool (= .def_59 0))
(define-fun .def_53 () Bool (not .def_52))
(define-fun .def_49 () (Array Int Int) (store .def_12 |.x{103}| |.x{106}|))
(define-fun .def_50 () Bool (= |.y{11}| .def_49))
(define-fun .def_46 () Bool (= .def_18 |.y{14}|))
(define-fun .def_43 () (Array Int Int) (store .def_16 |.x{105}| |.x{106}|))
(define-fun .def_44 () Bool (= |.y{13}| .def_43))
(define-fun .def_38 () Int (* (- 1) |.y{10}|))
(define-fun .def_39 () Int (+ .def_10 .def_38))
(define-fun .def_40 () Bool (= .def_39 (- 1)))
(define-fun .def_27 () Bool (<= .def_14 0))
(define-fun .def_34 () Bool (not .def_27))
(define-fun .def_29 () Bool (<= |.x{105}| 0))
(define-fun .def_30 () Bool (not .def_29))
(define-fun .def_31 () Bool (or .def_27 .def_30))
(define-fun .def_33 () Bool (and .def_31 .def_32))
(define-fun .def_35 () Bool (and .def_33 .def_34))
(define-fun .def_36 () Bool (and |.loc{5}| .def_35))
(define-fun .def_41 () Bool (and .def_36 .def_40))
(define-fun .def_45 () Bool (and .def_41 .def_44))
(define-fun .def_47 () Bool (and .def_45 .def_46))
(define-fun .def_51 () Bool (and .def_47 .def_50))
(define-fun .def_54 () Bool (and .def_51 .def_53))
(define-fun .def_56 () Bool (and .def_54 .def_55))
(define-fun .def_61 () Bool (and .def_56 .def_60))
(define-fun .def_62 () Bool (and .def_22 .def_61))
(define-fun .def_64 () Bool (and .def_62 .def_63))
(define-fun .def_69 () Bool (and .def_64 .def_68))
(define-fun .def_71 () Bool (and .def_69 .def_70))
(define-fun .def_73 () Bool (and .def_71 .def_72))
(define-fun .def_80 () Bool (and .def_73 .def_79))
(define-fun .def_213 () Bool (! (or .def_80 .def_212) :trans true))
(define-fun .def_215 () Bool (and .def_22 .def_24))
(define-fun .def_216 () Bool (! (not .def_215) :invar-property 0))
(assert true)
